# Solution for model r3_t18_m4_8 Batch Number: 3
# Finished Task: 17 / 18
# Makespan: 879.0, Total Distance: 704.0, Total Time: 0.7538
# R O S F Batch
0 0 19 0.0 0.0 -1
1 1 7 0.0 0.0 -1
2 2 20 0.0 0.0 -1
3 2 9 499.0 524.0 0
4 2 12 701.0 726.0 1
5 0 -1 742.0 780.0 1
6 2 16 795.0 825.0 2
7 1 11 325.0 358.0 0
8 1 10 640.0 679.0 1
9 2 4 601.0 640.0 1
10 1 14 722.0 742.0 1
11 1 17 389.0 411.0 0
12 2 6 746.0 771.0 2
13 0 15 524.0 559.0 0
14 1 -1 821.0 855.0 2
15 0 5 559.0 596.0 0
16 2 -1 851.0 879.0 2
17 1 8 479.0 505.0 0
18 -1 -1 -1.0 -1.0 2
19 0 13 397.0 434.0 0
20 2 3 411.0 435.0 0
